param K := 10;
param eps := 0.05;

set Ct:= SC1 SC2;
set M := MS1_1 MS1_2 MS2_1 MS2_2;
set F := F1 F2 F3;
set C["SC1"] := MS1_1 MS1_2;
set C["SC2"] := MS2_1 MS2_2;

param:      lm      Sm      Om      :=
MS1_1       0.045       5.492756182206447      5.492756182206447
MS1_2       0.045       4.507243817793553      4.507243817793553
MS2_1       0.045       1.7876513171984199      1.7876513171984199
MS2_2       0.045       8.21234868280158      8.21234868280158
;

param:  lc  :=
SC1   0.045
SC2   0.045
;

param   P   :=
 F1  1.0
 F2  1.0
 F3  1.0
;

param   o:    MS1_1    MS1_2    MS2_1    MS2_2    :=
    MS1_1    0    0    0    0
    MS1_2    1    0    0    0
    MS2_1    0    0    0    0
    MS2_2    0    0    1    0
;

param   d:    F1    F2    F3    :=
    F1    0.0    5.408474668978052    5.408474668978052
    F2    5.408474668978052    0.0    4.408506260509778
    F3    5.408474668978052    4.408506260509778    0.0
;